project/plat/plat20.dat.lp
\* Problem: robots *\

Minimize
 obj: + 0 x_1,1 + 59 x_1,2 + 76 x_1,3 + 56 x_1,4 + 49 x_1,5 + 39 x_1,6
 + 44 x_1,7 + 31 x_1,8 + x_1,9 + 27 x_1,10 + 90 x_1,11 + 23 x_1,12
 + 67 x_1,13 + 92 x_1,14 + 10 x_1,15 + 10 x_1,16 + 7 x_1,17 + 86 x_1,18
 + 79 x_1,19 + 97 x_1,20 + 59 x_2,1 + 0 x_2,2 + 92 x_2,3 + 70 x_2,4
 + 82 x_2,5 + 41 x_2,6 + 2 x_2,7 + 86 x_2,8 + 15 x_2,9 + 38 x_2,10
 + 16 x_2,11 + 68 x_2,12 + 49 x_2,13 + 93 x_2,14 + 24 x_2,15 + 99 x_2,16
 + 84 x_2,17 + 20 x_2,18 + 82 x_2,19 + 85 x_2,20 + 76 x_3,1 + 92 x_3,2
 + 0 x_3,3 + 67 x_3,4 + 17 x_3,5 + 70 x_3,6 + 77 x_3,7 + 24 x_3,8
 + 8 x_3,9 + 56 x_3,10 + 73 x_3,11 + 88 x_3,12 + 44 x_3,13 + 17 x_3,14
 + 58 x_3,15 + 78 x_3,16 + 58 x_3,17 + 13 x_3,18 + 17 x_3,19 + 74 x_3,20
 + 56 x_4,1 + 70 x_4,2 + 67 x_4,3 + 0 x_4,4 + 26 x_4,5 + 18 x_4,6
 + 51 x_4,7 + 11 x_4,8 + 39 x_4,9 + 86 x_4,10 + 48 x_4,11 + 39 x_4,12
 + 10 x_4,13 + 9 x_4,14 + 58 x_4,15 + 27 x_4,16 + 31 x_4,17 + 87 x_4,18
 + 4 x_4,19 + 40 x_4,20 + 49 x_5,1 + 82 x_5,2 + 17 x_5,3 + 26 x_5,4
 + 0 x_5,5 + 38 x_5,6 + 18 x_5,7 + 5 x_5,8 + 51 x_5,9 + 35 x_5,10
 + 31 x_5,11 + 54 x_5,12 + 69 x_5,13 + 25 x_5,14 + 7 x_5,15 + 47 x_5,16
 + 96 x_5,17 + 58 x_5,18 + 58 x_5,19 + 87 x_5,20 + 39 x_6,1 + 41 x_6,2
 + 70 x_6,3 + 18 x_6,4 + 38 x_6,5 + 0 x_6,6 + 34 x_6,7 + 51 x_6,8
 + 23 x_6,9 + 90 x_6,10 + 43 x_6,11 + 71 x_6,12 + 68 x_6,13 + 23 x_6,14
 + 11 x_6,15 + 15 x_6,16 + 62 x_6,17 + 82 x_6,18 + 20 x_6,19 + 65 x_6,20
 + 44 x_7,1 + 2 x_7,2 + 77 x_7,3 + 51 x_7,4 + 18 x_7,5 + 34 x_7,6
 + 0 x_7,7 + 77 x_7,8 + 89 x_7,9 + 48 x_7,10 + 64 x_7,11 + 86 x_7,12
 + 59 x_7,13 + 42 x_7,14 + 45 x_7,15 + 79 x_7,16 + 78 x_7,17 + 79 x_7,18
 + 83 x_7,19 + 54 x_7,20 + 31 x_8,1 + 86 x_8,2 + 24 x_8,3 + 11 x_8,4
 + 5 x_8,5 + 51 x_8,6 + 77 x_8,7 + 0 x_8,8 + 23 x_8,9 + 77 x_8,10
 + 81 x_8,11 + 92 x_8,12 + 81 x_8,13 + 5 x_8,14 + 35 x_8,15 + 63 x_8,16
 + 84 x_8,17 + 73 x_8,18 + 92 x_8,19 + 74 x_8,20 + x_9,1 + 15 x_9,2
 + 8 x_9,3 + 39 x_9,4 + 51 x_9,5 + 23 x_9,6 + 89 x_9,7 + 23 x_9,8
 + 0 x_9,9 + 47 x_9,10 + 36 x_9,11 + 10 x_9,12 + 26 x_9,13 + 13 x_9,14
 + 28 x_9,16 + 2 x_9,17 + 57 x_9,18 + 96 x_9,19 + 25 x_9,20 + 27 x_10,1
 + 38 x_10,2 + 56 x_10,3 + 86 x_10,4 + 35 x_10,5 + 90 x_10,6 + 48 x_10,7
 + 77 x_10,8 + 47 x_10,9 + 0 x_10,10 + 45 x_10,11 + 55 x_10,12
 + 85 x_10,13 + 57 x_10,14 + 40 x_10,15 + 36 x_10,16 + 66 x_10,17
 + 57 x_10,18 + 18 x_10,19 + 7 x_10,20 + 90 x_11,1 + 16 x_11,2
 + 73 x_11,3 + 48 x_11,4 + 31 x_11,5 + 43 x_11,6 + 64 x_11,7 + 81 x_11,8
 + 36 x_11,9 + 45 x_11,10 + 0 x_11,11 + 14 x_11,12 + 88 x_11,13
 + 22 x_11,14 + 35 x_11,15 + 75 x_11,16 + 27 x_11,17 + 70 x_11,18
 + 94 x_11,19 + 9 x_11,20 + 23 x_12,1 + 68 x_12,2 + 88 x_12,3
 + 39 x_12,4 + 54 x_12,5 + 71 x_12,6 + 86 x_12,7 + 92 x_12,8 + 10 x_12,9
 + 55 x_12,10 + 14 x_12,11 + 0 x_12,12 + 97 x_12,13 + 92 x_12,14
 + 5 x_12,15 + 17 x_12,16 + 14 x_12,17 + 19 x_12,18 + 39 x_12,19
 + 42 x_12,20 + 67 x_13,1 + 49 x_13,2 + 44 x_13,3 + 10 x_13,4
 + 69 x_13,5 + 68 x_13,6 + 59 x_13,7 + 81 x_13,8 + 26 x_13,9
 + 85 x_13,10 + 88 x_13,11 + 97 x_13,12 + 0 x_13,13 + 18 x_13,14
 + 4 x_13,15 + 33 x_13,16 + 27 x_13,17 + 28 x_13,18 + 53 x_13,19
 + 41 x_13,20 + 92 x_14,1 + 93 x_14,2 + 17 x_14,3 + 9 x_14,4 + 25 x_14,5
 + 23 x_14,6 + 42 x_14,7 + 5 x_14,8 + 13 x_14,9 + 57 x_14,10
 + 22 x_14,11 + 92 x_14,12 + 18 x_14,13 + 0 x_14,14 + 40 x_14,15
 + 33 x_14,16 + 37 x_14,17 + 85 x_14,18 + 25 x_14,19 + 55 x_14,20
 + 10 x_15,1 + 24 x_15,2 + 58 x_15,3 + 58 x_15,4 + 7 x_15,5 + 11 x_15,6
 + 45 x_15,7 + 35 x_15,8 + 40 x_15,10 + 35 x_15,11 + 5 x_15,12
 + 4 x_15,13 + 40 x_15,14 + 0 x_15,15 + 54 x_15,16 + 53 x_15,17
 + 82 x_15,18 + 93 x_15,19 + 93 x_15,20 + 10 x_16,1 + 99 x_16,2
 + 78 x_16,3 + 27 x_16,4 + 47 x_16,5 + 15 x_16,6 + 79 x_16,7 + 63 x_16,8
 + 28 x_16,9 + 36 x_16,10 + 75 x_16,11 + 17 x_16,12 + 33 x_16,13
 + 33 x_16,14 + 54 x_16,15 + 0 x_16,16 + 15 x_16,17 + 77 x_16,18
 + 92 x_16,19 + 70 x_16,20 + 7 x_17,1 + 84 x_17,2 + 58 x_17,3
 + 31 x_17,4 + 96 x_17,5 + 62 x_17,6 + 78 x_17,7 + 84 x_17,8 + 2 x_17,9
 + 66 x_17,10 + 27 x_17,11 + 14 x_17,12 + 27 x_17,13 + 37 x_17,14
 + 53 x_17,15 + 15 x_17,16 + 0 x_17,17 + 30 x_17,18 + 17 x_17,19
 + 57 x_17,20 + 86 x_18,1 + 20 x_18,2 + 13 x_18,3 + 87 x_18,4
 + 58 x_18,5 + 82 x_18,6 + 79 x_18,7 + 73 x_18,8 + 57 x_18,9
 + 57 x_18,10 + 70 x_18,11 + 19 x_18,12 + 28 x_18,13 + 85 x_18,14
 + 82 x_18,15 + 77 x_18,16 + 30 x_18,17 + 0 x_18,18 + 50 x_18,19
 + 24 x_18,20 + 79 x_19,1 + 82 x_19,2 + 17 x_19,3 + 4 x_19,4 + 58 x_19,5
 + 20 x_19,6 + 83 x_19,7 + 92 x_19,8 + 96 x_19,9 + 18 x_19,10
 + 94 x_19,11 + 39 x_19,12 + 53 x_19,13 + 25 x_19,14 + 93 x_19,15
 + 92 x_19,16 + 17 x_19,17 + 50 x_19,18 + 0 x_19,19 + 11 x_19,20
 + 97 x_20,1 + 85 x_20,2 + 74 x_20,3 + 40 x_20,4 + 87 x_20,5 + 65 x_20,6
 + 54 x_20,7 + 74 x_20,8 + 25 x_20,9 + 7 x_20,10 + 9 x_20,11
 + 42 x_20,12 + 41 x_20,13 + 55 x_20,14 + 93 x_20,15 + 70 x_20,16
 + 57 x_20,17 + 24 x_20,18 + 11 x_20,19 + 0 x_20,20

Subject To
 (1'): + x_1,20 + x_1,19 + x_1,18 + x_1,17 + x_1,16 + x_1,15 + x_1,14
 + x_1,13 + x_1,12 + x_1,11 + x_1,10 + x_1,9 + x_1,8 + x_1,7 + x_1,6
 + x_1,5 + x_1,4 + x_1,3 + x_1,2 = 1
 (1'): + x_2,20 + x_2,19 + x_2,18 + x_2,17 + x_2,16 + x_2,15 + x_2,14
 + x_2,13 + x_2,12 + x_2,11 + x_2,10 + x_2,9 + x_2,8 + x_2,7 + x_2,6
 + x_2,5 + x_2,4 + x_2,3 + x_2,1 = 1
 (1'): + x_3,20 + x_3,19 + x_3,18 + x_3,17 + x_3,16 + x_3,15 + x_3,14
 + x_3,13 + x_3,12 + x_3,11 + x_3,10 + x_3,9 + x_3,8 + x_3,7 + x_3,6
 + x_3,5 + x_3,4 + x_3,2 + x_3,1 = 1
 (1'): + x_4,20 + x_4,19 + x_4,18 + x_4,17 + x_4,16 + x_4,15 + x_4,14
 + x_4,13 + x_4,12 + x_4,11 + x_4,10 + x_4,9 + x_4,8 + x_4,7 + x_4,6
 + x_4,5 + x_4,3 + x_4,2 + x_4,1 = 1
 (1'): + x_5,20 + x_5,19 + x_5,18 + x_5,17 + x_5,16 + x_5,15 + x_5,14
 + x_5,13 + x_5,12 + x_5,11 + x_5,10 + x_5,9 + x_5,8 + x_5,7 + x_5,6
 + x_5,4 + x_5,3 + x_5,2 + x_5,1 = 1
 (1'): + x_6,20 + x_6,19 + x_6,18 + x_6,17 + x_6,16 + x_6,15 + x_6,14
 + x_6,13 + x_6,12 + x_6,11 + x_6,10 + x_6,9 + x_6,8 + x_6,7 + x_6,5
 + x_6,4 + x_6,3 + x_6,2 + x_6,1 = 1
 (1'): + x_7,20 + x_7,19 + x_7,18 + x_7,17 + x_7,16 + x_7,15 + x_7,14
 + x_7,13 + x_7,12 + x_7,11 + x_7,10 + x_7,9 + x_7,8 + x_7,6 + x_7,5
 + x_7,4 + x_7,3 + x_7,2 + x_7,1 = 1
 (1'): + x_8,20 + x_8,19 + x_8,18 + x_8,17 + x_8,16 + x_8,15 + x_8,14
 + x_8,13 + x_8,12 + x_8,11 + x_8,10 + x_8,9 + x_8,7 + x_8,6 + x_8,5
 + x_8,4 + x_8,3 + x_8,2 + x_8,1 = 1
 (1'): + x_9,20 + x_9,19 + x_9,18 + x_9,17 + x_9,16 + x_9,15 + x_9,14
 + x_9,13 + x_9,12 + x_9,11 + x_9,10 + x_9,8 + x_9,7 + x_9,6 + x_9,5
 + x_9,4 + x_9,3 + x_9,2 + x_9,1 = 1
 (1'): + x_10,20 + x_10,19 + x_10,18 + x_10,17 + x_10,16 + x_10,15
 + x_10,14 + x_10,13 + x_10,12 + x_10,11 + x_10,9 + x_10,8 + x_10,7
 + x_10,6 + x_10,5 + x_10,4 + x_10,3 + x_10,2 + x_10,1 = 1
 (1'): + x_11,20 + x_11,19 + x_11,18 + x_11,17 + x_11,16 + x_11,15
 + x_11,14 + x_11,13 + x_11,12 + x_11,10 + x_11,9 + x_11,8 + x_11,7
 + x_11,6 + x_11,5 + x_11,4 + x_11,3 + x_11,2 + x_11,1 = 1
 (1'): + x_12,20 + x_12,19 + x_12,18 + x_12,17 + x_12,16 + x_12,15
 + x_12,14 + x_12,13 + x_12,11 + x_12,10 + x_12,9 + x_12,8 + x_12,7
 + x_12,6 + x_12,5 + x_12,4 + x_12,3 + x_12,2 + x_12,1 = 1
 (1'): + x_13,20 + x_13,19 + x_13,18 + x_13,17 + x_13,16 + x_13,15
 + x_13,14 + x_13,12 + x_13,11 + x_13,10 + x_13,9 + x_13,8 + x_13,7
 + x_13,6 + x_13,5 + x_13,4 + x_13,3 + x_13,2 + x_13,1 = 1
 (1'): + x_14,20 + x_14,19 + x_14,18 + x_14,17 + x_14,16 + x_14,15
 + x_14,13 + x_14,12 + x_14,11 + x_14,10 + x_14,9 + x_14,8 + x_14,7
 + x_14,6 + x_14,5 + x_14,4 + x_14,3 + x_14,2 + x_14,1 = 1
 (1'): + x_15,20 + x_15,19 + x_15,18 + x_15,17 + x_15,16 + x_15,14
 + x_15,13 + x_15,12 + x_15,11 + x_15,10 + x_15,9 + x_15,8 + x_15,7
 + x_15,6 + x_15,5 + x_15,4 + x_15,3 + x_15,2 + x_15,1 = 1
 (1'): + x_16,20 + x_16,19 + x_16,18 + x_16,17 + x_16,15 + x_16,14
 + x_16,13 + x_16,12 + x_16,11 + x_16,10 + x_16,9 + x_16,8 + x_16,7
 + x_16,6 + x_16,5 + x_16,4 + x_16,3 + x_16,2 + x_16,1 = 1
 (1'): + x_17,20 + x_17,19 + x_17,18 + x_17,16 + x_17,15 + x_17,14
 + x_17,13 + x_17,12 + x_17,11 + x_17,10 + x_17,9 + x_17,8 + x_17,7
 + x_17,6 + x_17,5 + x_17,4 + x_17,3 + x_17,2 + x_17,1 = 1
 (1'): + x_18,20 + x_18,19 + x_18,17 + x_18,16 + x_18,15 + x_18,14
 + x_18,13 + x_18,12 + x_18,11 + x_18,10 + x_18,9 + x_18,8 + x_18,7
 + x_18,6 + x_18,5 + x_18,4 + x_18,3 + x_18,2 + x_18,1 = 1
 (1'): + x_19,20 + x_19,18 + x_19,17 + x_19,16 + x_19,15 + x_19,14
 + x_19,13 + x_19,12 + x_19,11 + x_19,10 + x_19,9 + x_19,8 + x_19,7
 + x_19,6 + x_19,5 + x_19,4 + x_19,3 + x_19,2 + x_19,1 = 1
 (1'): + x_20,19 + x_20,18 + x_20,17 + x_20,16 + x_20,15 + x_20,14
 + x_20,13 + x_20,12 + x_20,11 + x_20,10 + x_20,9 + x_20,8 + x_20,7
 + x_20,6 + x_20,5 + x_20,4 + x_20,3 + x_20,2 + x_20,1 = 1
 (2'): + x_20,1 + x_19,1 + x_18,1 + x_17,1 + x_16,1 + x_15,1 + x_14,1
 + x_13,1 + x_12,1 + x_11,1 + x_10,1 + x_9,1 + x_8,1 + x_7,1 + x_6,1
 + x_5,1 + x_4,1 + x_3,1 + x_2,1 = 1
 (2'): + x_20,2 + x_19,2 + x_18,2 + x_17,2 + x_16,2 + x_15,2 + x_14,2
 + x_13,2 + x_12,2 + x_11,2 + x_10,2 + x_9,2 + x_8,2 + x_7,2 + x_6,2
 + x_5,2 + x_4,2 + x_3,2 + x_1,2 = 1
 (2'): + x_20,3 + x_19,3 + x_18,3 + x_17,3 + x_16,3 + x_15,3 + x_14,3
 + x_13,3 + x_12,3 + x_11,3 + x_10,3 + x_9,3 + x_8,3 + x_7,3 + x_6,3
 + x_5,3 + x_4,3 + x_2,3 + x_1,3 = 1
 (2'): + x_20,4 + x_19,4 + x_18,4 + x_17,4 + x_16,4 + x_15,4 + x_14,4
 + x_13,4 + x_12,4 + x_11,4 + x_10,4 + x_9,4 + x_8,4 + x_7,4 + x_6,4
 + x_5,4 + x_3,4 + x_2,4 + x_1,4 = 1
 (2'): + x_20,5 + x_19,5 + x_18,5 + x_17,5 + x_16,5 + x_15,5 + x_14,5
 + x_13,5 + x_12,5 + x_11,5 + x_10,5 + x_9,5 + x_8,5 + x_7,5 + x_6,5
 + x_4,5 + x_3,5 + x_2,5 + x_1,5 = 1
 (2'): + x_20,6 + x_19,6 + x_18,6 + x_17,6 + x_16,6 + x_15,6 + x_14,6
 + x_13,6 + x_12,6 + x_11,6 + x_10,6 + x_9,6 + x_8,6 + x_7,6 + x_5,6
 + x_4,6 + x_3,6 + x_2,6 + x_1,6 = 1
 (2'): + x_20,7 + x_19,7 + x_18,7 + x_17,7 + x_16,7 + x_15,7 + x_14,7
 + x_13,7 + x_12,7 + x_11,7 + x_10,7 + x_9,7 + x_8,7 + x_6,7 + x_5,7
 + x_4,7 + x_3,7 + x_2,7 + x_1,7 = 1
 (2'): + x_20,8 + x_19,8 + x_18,8 + x_17,8 + x_16,8 + x_15,8 + x_14,8
 + x_13,8 + x_12,8 + x_11,8 + x_10,8 + x_9,8 + x_7,8 + x_6,8 + x_5,8
 + x_4,8 + x_3,8 + x_2,8 + x_1,8 = 1
 (2'): + x_20,9 + x_19,9 + x_18,9 + x_17,9 + x_16,9 + x_15,9 + x_14,9
 + x_13,9 + x_12,9 + x_11,9 + x_10,9 + x_8,9 + x_7,9 + x_6,9 + x_5,9
 + x_4,9 + x_3,9 + x_2,9 + x_1,9 = 1
 (2'): + x_20,10 + x_19,10 + x_18,10 + x_17,10 + x_16,10 + x_15,10
 + x_14,10 + x_13,10 + x_12,10 + x_11,10 + x_9,10 + x_8,10 + x_7,10
 + x_6,10 + x_5,10 + x_4,10 + x_3,10 + x_2,10 + x_1,10 = 1
 (2'): + x_20,11 + x_19,11 + x_18,11 + x_17,11 + x_16,11 + x_15,11
 + x_14,11 + x_13,11 + x_12,11 + x_10,11 + x_9,11 + x_8,11 + x_7,11
 + x_6,11 + x_5,11 + x_4,11 + x_3,11 + x_2,11 + x_1,11 = 1
 (2'): + x_20,12 + x_19,12 + x_18,12 + x_17,12 + x_16,12 + x_15,12
 + x_14,12 + x_13,12 + x_11,12 + x_10,12 + x_9,12 + x_8,12 + x_7,12
 + x_6,12 + x_5,12 + x_4,12 + x_3,12 + x_2,12 + x_1,12 = 1
 (2'): + x_20,13 + x_19,13 + x_18,13 + x_17,13 + x_16,13 + x_15,13
 + x_14,13 + x_12,13 + x_11,13 + x_10,13 + x_9,13 + x_8,13 + x_7,13
 + x_6,13 + x_5,13 + x_4,13 + x_3,13 + x_2,13 + x_1,13 = 1
 (2'): + x_20,14 + x_19,14 + x_18,14 + x_17,14 + x_16,14 + x_15,14
 + x_13,14 + x_12,14 + x_11,14 + x_10,14 + x_9,14 + x_8,14 + x_7,14
 + x_6,14 + x_5,14 + x_4,14 + x_3,14 + x_2,14 + x_1,14 = 1
 (2'): + x_20,15 + x_19,15 + x_18,15 + x_17,15 + x_16,15 + x_14,15
 + x_13,15 + x_12,15 + x_11,15 + x_10,15 + x_9,15 + x_8,15 + x_7,15
 + x_6,15 + x_5,15 + x_4,15 + x_3,15 + x_2,15 + x_1,15 = 1
 (2'): + x_20,16 + x_19,16 + x_18,16 + x_17,16 + x_15,16 + x_14,16
 + x_13,16 + x_12,16 + x_11,16 + x_10,16 + x_9,16 + x_8,16 + x_7,16
 + x_6,16 + x_5,16 + x_4,16 + x_3,16 + x_2,16 + x_1,16 = 1
 (2'): + x_20,17 + x_19,17 + x_18,17 + x_16,17 + x_15,17 + x_14,17
 + x_13,17 + x_12,17 + x_11,17 + x_10,17 + x_9,17 + x_8,17 + x_7,17
 + x_6,17 + x_5,17 + x_4,17 + x_3,17 + x_2,17 + x_1,17 = 1
 (2'): + x_20,18 + x_19,18 + x_17,18 + x_16,18 + x_15,18 + x_14,18
 + x_13,18 + x_12,18 + x_11,18 + x_10,18 + x_9,18 + x_8,18 + x_7,18
 + x_6,18 + x_5,18 + x_4,18 + x_3,18 + x_2,18 + x_1,18 = 1
 (2'): + x_20,19 + x_18,19 + x_17,19 + x_16,19 + x_15,19 + x_14,19
 + x_13,19 + x_12,19 + x_11,19 + x_10,19 + x_9,19 + x_8,19 + x_7,19
 + x_6,19 + x_5,19 + x_4,19 + x_3,19 + x_2,19 + x_1,19 = 1
 (2'): + x_19,20 + x_18,20 + x_17,20 + x_16,20 + x_15,20 + x_14,20
 + x_13,20 + x_12,20 + x_11,20 + x_10,20 + x_9,20 + x_8,20 + x_7,20
 + x_6,20 + x_5,20 + x_4,20 + x_3,20 + x_2,20 + x_1,20 = 1
 (3): + x_2,7 + x_7,2 <= 1
 (3): + x_3,18 + x_18,3 <= 1
 (3): + x_4,19 + x_19,4 <= 1
 (3): + x_6,16 + x_16,6 <= 1
 (3): + x_10,20 + x_20,10 <= 1
 (3): + x_5,7 + x_8,5 + x_14,8 + x_3,14 + x_18,3 + x_2,18 + x_7,2 <= 6
 (3): + x_10,19 + x_20,10 + x_11,20 + x_12,11 + x_15,12 + x_13,15
 + x_4,13 + x_19,4 <= 7
 (3): + x_8,14 + x_14,8 <= 1
 (3): + x_15,13 + x_12,15 + x_11,12 + x_20,11 + x_10,20 + x_19,10
 + x_4,19 + x_13,4 <= 7
 (3): + x_17,9 + x_1,17 + x_9,1 <= 2
 (3): + x_3,18 + x_14,3 + x_8,14 + x_5,8 + x_7,5 + x_2,7 + x_18,2 <= 6

Bounds
 0 <= x_1,1 <= 1
 0 <= x_1,2 <= 1
 0 <= x_1,3 <= 1
 0 <= x_1,4 <= 1
 0 <= x_1,5 <= 1
 0 <= x_1,6 <= 1
 0 <= x_1,7 <= 1
 0 <= x_1,8 <= 1
 0 <= x_1,9 <= 1
 0 <= x_1,10 <= 1
 0 <= x_1,11 <= 1
 0 <= x_1,12 <= 1
 0 <= x_1,13 <= 1
 0 <= x_1,14 <= 1
 0 <= x_1,15 <= 1
 0 <= x_1,16 <= 1
 0 <= x_1,17 <= 1
 0 <= x_1,18 <= 1
 0 <= x_1,19 <= 1
 0 <= x_1,20 <= 1
 0 <= x_2,1 <= 1
 0 <= x_2,2 <= 1
 0 <= x_2,3 <= 1
 0 <= x_2,4 <= 1
 0 <= x_2,5 <= 1
 0 <= x_2,6 <= 1
 0 <= x_2,7 <= 1
 0 <= x_2,8 <= 1
 0 <= x_2,9 <= 1
 0 <= x_2,10 <= 1
 0 <= x_2,11 <= 1
 0 <= x_2,12 <= 1
 0 <= x_2,13 <= 1
 0 <= x_2,14 <= 1
 0 <= x_2,15 <= 1
 0 <= x_2,16 <= 1
 0 <= x_2,17 <= 1
 0 <= x_2,18 <= 1
 0 <= x_2,19 <= 1
 0 <= x_2,20 <= 1
 0 <= x_3,1 <= 1
 0 <= x_3,2 <= 1
 0 <= x_3,3 <= 1
 0 <= x_3,4 <= 1
 0 <= x_3,5 <= 1
 0 <= x_3,6 <= 1
 0 <= x_3,7 <= 1
 0 <= x_3,8 <= 1
 0 <= x_3,9 <= 1
 0 <= x_3,10 <= 1
 0 <= x_3,11 <= 1
 0 <= x_3,12 <= 1
 0 <= x_3,13 <= 1
 0 <= x_3,14 <= 1
 0 <= x_3,15 <= 1
 0 <= x_3,16 <= 1
 0 <= x_3,17 <= 1
 0 <= x_3,18 <= 1
 0 <= x_3,19 <= 1
 0 <= x_3,20 <= 1
 0 <= x_4,1 <= 1
 0 <= x_4,2 <= 1
 0 <= x_4,3 <= 1
 0 <= x_4,4 <= 1
 0 <= x_4,5 <= 1
 0 <= x_4,6 <= 1
 0 <= x_4,7 <= 1
 0 <= x_4,8 <= 1
 0 <= x_4,9 <= 1
 0 <= x_4,10 <= 1
 0 <= x_4,11 <= 1
 0 <= x_4,12 <= 1
 0 <= x_4,13 <= 1
 0 <= x_4,14 <= 1
 0 <= x_4,15 <= 1
 0 <= x_4,16 <= 1
 0 <= x_4,17 <= 1
 0 <= x_4,18 <= 1
 0 <= x_4,19 <= 1
 0 <= x_4,20 <= 1
 0 <= x_5,1 <= 1
 0 <= x_5,2 <= 1
 0 <= x_5,3 <= 1
 0 <= x_5,4 <= 1
 0 <= x_5,5 <= 1
 0 <= x_5,6 <= 1
 0 <= x_5,7 <= 1
 0 <= x_5,8 <= 1
 0 <= x_5,9 <= 1
 0 <= x_5,10 <= 1
 0 <= x_5,11 <= 1
 0 <= x_5,12 <= 1
 0 <= x_5,13 <= 1
 0 <= x_5,14 <= 1
 0 <= x_5,15 <= 1
 0 <= x_5,16 <= 1
 0 <= x_5,17 <= 1
 0 <= x_5,18 <= 1
 0 <= x_5,19 <= 1
 0 <= x_5,20 <= 1
 0 <= x_6,1 <= 1
 0 <= x_6,2 <= 1
 0 <= x_6,3 <= 1
 0 <= x_6,4 <= 1
 0 <= x_6,5 <= 1
 0 <= x_6,6 <= 1
 0 <= x_6,7 <= 1
 0 <= x_6,8 <= 1
 0 <= x_6,9 <= 1
 0 <= x_6,10 <= 1
 0 <= x_6,11 <= 1
 0 <= x_6,12 <= 1
 0 <= x_6,13 <= 1
 0 <= x_6,14 <= 1
 0 <= x_6,15 <= 1
 0 <= x_6,16 <= 1
 0 <= x_6,17 <= 1
 0 <= x_6,18 <= 1
 0 <= x_6,19 <= 1
 0 <= x_6,20 <= 1
 0 <= x_7,1 <= 1
 0 <= x_7,2 <= 1
 0 <= x_7,3 <= 1
 0 <= x_7,4 <= 1
 0 <= x_7,5 <= 1
 0 <= x_7,6 <= 1
 0 <= x_7,7 <= 1
 0 <= x_7,8 <= 1
 0 <= x_7,9 <= 1
 0 <= x_7,10 <= 1
 0 <= x_7,11 <= 1
 0 <= x_7,12 <= 1
 0 <= x_7,13 <= 1
 0 <= x_7,14 <= 1
 0 <= x_7,15 <= 1
 0 <= x_7,16 <= 1
 0 <= x_7,17 <= 1
 0 <= x_7,18 <= 1
 0 <= x_7,19 <= 1
 0 <= x_7,20 <= 1
 0 <= x_8,1 <= 1
 0 <= x_8,2 <= 1
 0 <= x_8,3 <= 1
 0 <= x_8,4 <= 1
 0 <= x_8,5 <= 1
 0 <= x_8,6 <= 1
 0 <= x_8,7 <= 1
 0 <= x_8,8 <= 1
 0 <= x_8,9 <= 1
 0 <= x_8,10 <= 1
 0 <= x_8,11 <= 1
 0 <= x_8,12 <= 1
 0 <= x_8,13 <= 1
 0 <= x_8,14 <= 1
 0 <= x_8,15 <= 1
 0 <= x_8,16 <= 1
 0 <= x_8,17 <= 1
 0 <= x_8,18 <= 1
 0 <= x_8,19 <= 1
 0 <= x_8,20 <= 1
 0 <= x_9,1 <= 1
 0 <= x_9,2 <= 1
 0 <= x_9,3 <= 1
 0 <= x_9,4 <= 1
 0 <= x_9,5 <= 1
 0 <= x_9,6 <= 1
 0 <= x_9,7 <= 1
 0 <= x_9,8 <= 1
 0 <= x_9,9 <= 1
 0 <= x_9,10 <= 1
 0 <= x_9,11 <= 1
 0 <= x_9,12 <= 1
 0 <= x_9,13 <= 1
 0 <= x_9,14 <= 1
 0 <= x_9,15 <= 1
 0 <= x_9,16 <= 1
 0 <= x_9,17 <= 1
 0 <= x_9,18 <= 1
 0 <= x_9,19 <= 1
 0 <= x_9,20 <= 1
 0 <= x_10,1 <= 1
 0 <= x_10,2 <= 1
 0 <= x_10,3 <= 1
 0 <= x_10,4 <= 1
 0 <= x_10,5 <= 1
 0 <= x_10,6 <= 1
 0 <= x_10,7 <= 1
 0 <= x_10,8 <= 1
 0 <= x_10,9 <= 1
 0 <= x_10,10 <= 1
 0 <= x_10,11 <= 1
 0 <= x_10,12 <= 1
 0 <= x_10,13 <= 1
 0 <= x_10,14 <= 1
 0 <= x_10,15 <= 1
 0 <= x_10,16 <= 1
 0 <= x_10,17 <= 1
 0 <= x_10,18 <= 1
 0 <= x_10,19 <= 1
 0 <= x_10,20 <= 1
 0 <= x_11,1 <= 1
 0 <= x_11,2 <= 1
 0 <= x_11,3 <= 1
 0 <= x_11,4 <= 1
 0 <= x_11,5 <= 1
 0 <= x_11,6 <= 1
 0 <= x_11,7 <= 1
 0 <= x_11,8 <= 1
 0 <= x_11,9 <= 1
 0 <= x_11,10 <= 1
 0 <= x_11,11 <= 1
 0 <= x_11,12 <= 1
 0 <= x_11,13 <= 1
 0 <= x_11,14 <= 1
 0 <= x_11,15 <= 1
 0 <= x_11,16 <= 1
 0 <= x_11,17 <= 1
 0 <= x_11,18 <= 1
 0 <= x_11,19 <= 1
 0 <= x_11,20 <= 1
 0 <= x_12,1 <= 1
 0 <= x_12,2 <= 1
 0 <= x_12,3 <= 1
 0 <= x_12,4 <= 1
 0 <= x_12,5 <= 1
 0 <= x_12,6 <= 1
 0 <= x_12,7 <= 1
 0 <= x_12,8 <= 1
 0 <= x_12,9 <= 1
 0 <= x_12,10 <= 1
 0 <= x_12,11 <= 1
 0 <= x_12,12 <= 1
 0 <= x_12,13 <= 1
 0 <= x_12,14 <= 1
 0 <= x_12,15 <= 1
 0 <= x_12,16 <= 1
 0 <= x_12,17 <= 1
 0 <= x_12,18 <= 1
 0 <= x_12,19 <= 1
 0 <= x_12,20 <= 1
 0 <= x_13,1 <= 1
 0 <= x_13,2 <= 1
 0 <= x_13,3 <= 1
 0 <= x_13,4 <= 1
 0 <= x_13,5 <= 1
 0 <= x_13,6 <= 1
 0 <= x_13,7 <= 1
 0 <= x_13,8 <= 1
 0 <= x_13,9 <= 1
 0 <= x_13,10 <= 1
 0 <= x_13,11 <= 1
 0 <= x_13,12 <= 1
 0 <= x_13,13 <= 1
 0 <= x_13,14 <= 1
 0 <= x_13,15 <= 1
 0 <= x_13,16 <= 1
 0 <= x_13,17 <= 1
 0 <= x_13,18 <= 1
 0 <= x_13,19 <= 1
 0 <= x_13,20 <= 1
 0 <= x_14,1 <= 1
 0 <= x_14,2 <= 1
 0 <= x_14,3 <= 1
 0 <= x_14,4 <= 1
 0 <= x_14,5 <= 1
 0 <= x_14,6 <= 1
 0 <= x_14,7 <= 1
 0 <= x_14,8 <= 1
 0 <= x_14,9 <= 1
 0 <= x_14,10 <= 1
 0 <= x_14,11 <= 1
 0 <= x_14,12 <= 1
 0 <= x_14,13 <= 1
 0 <= x_14,14 <= 1
 0 <= x_14,15 <= 1
 0 <= x_14,16 <= 1
 0 <= x_14,17 <= 1
 0 <= x_14,18 <= 1
 0 <= x_14,19 <= 1
 0 <= x_14,20 <= 1
 0 <= x_15,1 <= 1
 0 <= x_15,2 <= 1
 0 <= x_15,3 <= 1
 0 <= x_15,4 <= 1
 0 <= x_15,5 <= 1
 0 <= x_15,6 <= 1
 0 <= x_15,7 <= 1
 0 <= x_15,8 <= 1
 0 <= x_15,9 <= 1
 0 <= x_15,10 <= 1
 0 <= x_15,11 <= 1
 0 <= x_15,12 <= 1
 0 <= x_15,13 <= 1
 0 <= x_15,14 <= 1
 0 <= x_15,15 <= 1
 0 <= x_15,16 <= 1
 0 <= x_15,17 <= 1
 0 <= x_15,18 <= 1
 0 <= x_15,19 <= 1
 0 <= x_15,20 <= 1
 0 <= x_16,1 <= 1
 0 <= x_16,2 <= 1
 0 <= x_16,3 <= 1
 0 <= x_16,4 <= 1
 0 <= x_16,5 <= 1
 0 <= x_16,6 <= 1
 0 <= x_16,7 <= 1
 0 <= x_16,8 <= 1
 0 <= x_16,9 <= 1
 0 <= x_16,10 <= 1
 0 <= x_16,11 <= 1
 0 <= x_16,12 <= 1
 0 <= x_16,13 <= 1
 0 <= x_16,14 <= 1
 0 <= x_16,15 <= 1
 0 <= x_16,16 <= 1
 0 <= x_16,17 <= 1
 0 <= x_16,18 <= 1
 0 <= x_16,19 <= 1
 0 <= x_16,20 <= 1
 0 <= x_17,1 <= 1
 0 <= x_17,2 <= 1
 0 <= x_17,3 <= 1
 0 <= x_17,4 <= 1
 0 <= x_17,5 <= 1
 0 <= x_17,6 <= 1
 0 <= x_17,7 <= 1
 0 <= x_17,8 <= 1
 0 <= x_17,9 <= 1
 0 <= x_17,10 <= 1
 0 <= x_17,11 <= 1
 0 <= x_17,12 <= 1
 0 <= x_17,13 <= 1
 0 <= x_17,14 <= 1
 0 <= x_17,15 <= 1
 0 <= x_17,16 <= 1
 0 <= x_17,17 <= 1
 0 <= x_17,18 <= 1
 0 <= x_17,19 <= 1
 0 <= x_17,20 <= 1
 0 <= x_18,1 <= 1
 0 <= x_18,2 <= 1
 0 <= x_18,3 <= 1
 0 <= x_18,4 <= 1
 0 <= x_18,5 <= 1
 0 <= x_18,6 <= 1
 0 <= x_18,7 <= 1
 0 <= x_18,8 <= 1
 0 <= x_18,9 <= 1
 0 <= x_18,10 <= 1
 0 <= x_18,11 <= 1
 0 <= x_18,12 <= 1
 0 <= x_18,13 <= 1
 0 <= x_18,14 <= 1
 0 <= x_18,15 <= 1
 0 <= x_18,16 <= 1
 0 <= x_18,17 <= 1
 0 <= x_18,18 <= 1
 0 <= x_18,19 <= 1
 0 <= x_18,20 <= 1
 0 <= x_19,1 <= 1
 0 <= x_19,2 <= 1
 0 <= x_19,3 <= 1
 0 <= x_19,4 <= 1
 0 <= x_19,5 <= 1
 0 <= x_19,6 <= 1
 0 <= x_19,7 <= 1
 0 <= x_19,8 <= 1
 0 <= x_19,9 <= 1
 0 <= x_19,10 <= 1
 0 <= x_19,11 <= 1
 0 <= x_19,12 <= 1
 0 <= x_19,13 <= 1
 0 <= x_19,14 <= 1
 0 <= x_19,15 <= 1
 0 <= x_19,16 <= 1
 0 <= x_19,17 <= 1
 0 <= x_19,18 <= 1
 0 <= x_19,19 <= 1
 0 <= x_19,20 <= 1
 0 <= x_20,1 <= 1
 0 <= x_20,2 <= 1
 0 <= x_20,3 <= 1
 0 <= x_20,4 <= 1
 0 <= x_20,5 <= 1
 0 <= x_20,6 <= 1
 0 <= x_20,7 <= 1
 0 <= x_20,8 <= 1
 0 <= x_20,9 <= 1
 0 <= x_20,10 <= 1
 0 <= x_20,11 <= 1
 0 <= x_20,12 <= 1
 0 <= x_20,13 <= 1
 0 <= x_20,14 <= 1
 0 <= x_20,15 <= 1
 0 <= x_20,16 <= 1
 0 <= x_20,17 <= 1
 0 <= x_20,18 <= 1
 0 <= x_20,19 <= 1
 0 <= x_20,20 <= 1

Generals
 x_1,1
 x_1,2
 x_1,3
 x_1,4
 x_1,5
 x_1,6
 x_1,7
 x_1,8
 x_1,9
 x_1,10
 x_1,11
 x_1,12
 x_1,13
 x_1,14
 x_1,15
 x_1,16
 x_1,17
 x_1,18
 x_1,19
 x_1,20
 x_2,1
 x_2,2
 x_2,3
 x_2,4
 x_2,5
 x_2,6
 x_2,7
 x_2,8
 x_2,9
 x_2,10
 x_2,11
 x_2,12
 x_2,13
 x_2,14
 x_2,15
 x_2,16
 x_2,17
 x_2,18
 x_2,19
 x_2,20
 x_3,1
 x_3,2
 x_3,3
 x_3,4
 x_3,5
 x_3,6
 x_3,7
 x_3,8
 x_3,9
 x_3,10
 x_3,11
 x_3,12
 x_3,13
 x_3,14
 x_3,15
 x_3,16
 x_3,17
 x_3,18
 x_3,19
 x_3,20
 x_4,1
 x_4,2
 x_4,3
 x_4,4
 x_4,5
 x_4,6
 x_4,7
 x_4,8
 x_4,9
 x_4,10
 x_4,11
 x_4,12
 x_4,13
 x_4,14
 x_4,15
 x_4,16
 x_4,17
 x_4,18
 x_4,19
 x_4,20
 x_5,1
 x_5,2
 x_5,3
 x_5,4
 x_5,5
 x_5,6
 x_5,7
 x_5,8
 x_5,9
 x_5,10
 x_5,11
 x_5,12
 x_5,13
 x_5,14
 x_5,15
 x_5,16
 x_5,17
 x_5,18
 x_5,19
 x_5,20
 x_6,1
 x_6,2
 x_6,3
 x_6,4
 x_6,5
 x_6,6
 x_6,7
 x_6,8
 x_6,9
 x_6,10
 x_6,11
 x_6,12
 x_6,13
 x_6,14
 x_6,15
 x_6,16
 x_6,17
 x_6,18
 x_6,19
 x_6,20
 x_7,1
 x_7,2
 x_7,3
 x_7,4
 x_7,5
 x_7,6
 x_7,7
 x_7,8
 x_7,9
 x_7,10
 x_7,11
 x_7,12
 x_7,13
 x_7,14
 x_7,15
 x_7,16
 x_7,17
 x_7,18
 x_7,19
 x_7,20
 x_8,1
 x_8,2
 x_8,3
 x_8,4
 x_8,5
 x_8,6
 x_8,7
 x_8,8
 x_8,9
 x_8,10
 x_8,11
 x_8,12
 x_8,13
 x_8,14
 x_8,15
 x_8,16
 x_8,17
 x_8,18
 x_8,19
 x_8,20
 x_9,1
 x_9,2
 x_9,3
 x_9,4
 x_9,5
 x_9,6
 x_9,7
 x_9,8
 x_9,9
 x_9,10
 x_9,11
 x_9,12
 x_9,13
 x_9,14
 x_9,15
 x_9,16
 x_9,17
 x_9,18
 x_9,19
 x_9,20
 x_10,1
 x_10,2
 x_10,3
 x_10,4
 x_10,5
 x_10,6
 x_10,7
 x_10,8
 x_10,9
 x_10,10
 x_10,11
 x_10,12
 x_10,13
 x_10,14
 x_10,15
 x_10,16
 x_10,17
 x_10,18
 x_10,19
 x_10,20
 x_11,1
 x_11,2
 x_11,3
 x_11,4
 x_11,5
 x_11,6
 x_11,7
 x_11,8
 x_11,9
 x_11,10
 x_11,11
 x_11,12
 x_11,13
 x_11,14
 x_11,15
 x_11,16
 x_11,17
 x_11,18
 x_11,19
 x_11,20
 x_12,1
 x_12,2
 x_12,3
 x_12,4
 x_12,5
 x_12,6
 x_12,7
 x_12,8
 x_12,9
 x_12,10
 x_12,11
 x_12,12
 x_12,13
 x_12,14
 x_12,15
 x_12,16
 x_12,17
 x_12,18
 x_12,19
 x_12,20
 x_13,1
 x_13,2
 x_13,3
 x_13,4
 x_13,5
 x_13,6
 x_13,7
 x_13,8
 x_13,9
 x_13,10
 x_13,11
 x_13,12
 x_13,13
 x_13,14
 x_13,15
 x_13,16
 x_13,17
 x_13,18
 x_13,19
 x_13,20
 x_14,1
 x_14,2
 x_14,3
 x_14,4
 x_14,5
 x_14,6
 x_14,7
 x_14,8
 x_14,9
 x_14,10
 x_14,11
 x_14,12
 x_14,13
 x_14,14
 x_14,15
 x_14,16
 x_14,17
 x_14,18
 x_14,19
 x_14,20
 x_15,1
 x_15,2
 x_15,3
 x_15,4
 x_15,5
 x_15,6
 x_15,7
 x_15,8
 x_15,9
 x_15,10
 x_15,11
 x_15,12
 x_15,13
 x_15,14
 x_15,15
 x_15,16
 x_15,17
 x_15,18
 x_15,19
 x_15,20
 x_16,1
 x_16,2
 x_16,3
 x_16,4
 x_16,5
 x_16,6
 x_16,7
 x_16,8
 x_16,9
 x_16,10
 x_16,11
 x_16,12
 x_16,13
 x_16,14
 x_16,15
 x_16,16
 x_16,17
 x_16,18
 x_16,19
 x_16,20
 x_17,1
 x_17,2
 x_17,3
 x_17,4
 x_17,5
 x_17,6
 x_17,7
 x_17,8
 x_17,9
 x_17,10
 x_17,11
 x_17,12
 x_17,13
 x_17,14
 x_17,15
 x_17,16
 x_17,17
 x_17,18
 x_17,19
 x_17,20
 x_18,1
 x_18,2
 x_18,3
 x_18,4
 x_18,5
 x_18,6
 x_18,7
 x_18,8
 x_18,9
 x_18,10
 x_18,11
 x_18,12
 x_18,13
 x_18,14
 x_18,15
 x_18,16
 x_18,17
 x_18,18
 x_18,19
 x_18,20
 x_19,1
 x_19,2
 x_19,3
 x_19,4
 x_19,5
 x_19,6
 x_19,7
 x_19,8
 x_19,9
 x_19,10
 x_19,11
 x_19,12
 x_19,13
 x_19,14
 x_19,15
 x_19,16
 x_19,17
 x_19,18
 x_19,19
 x_19,20
 x_20,1
 x_20,2
 x_20,3
 x_20,4
 x_20,5
 x_20,6
 x_20,7
 x_20,8
 x_20,9
 x_20,10
 x_20,11
 x_20,12
 x_20,13
 x_20,14
 x_20,15
 x_20,16
 x_20,17
 x_20,18
 x_20,19
 x_20,20

End
