project/data/plat/plat20.dat.txt
################
Résolution 1

Permutations:
1 -> 9
2 -> 7
3 -> 18
4 -> 19
5 -> 8
6 -> 16
7 -> 2
8 -> 14
9 -> 17
10 -> 20
11 -> 12
12 -> 11
13 -> 15
14 -> 13
15 -> 5
16 -> 6
17 -> 1
18 -> 3
19 -> 4
20 -> 10

Cycles:
(1 9 17)
(2 7)
(3 18)
(4 19)
(5 8 14 13 15)
(6 16)
(10 20)
(11 12)

Cycle à casser:
(2 7)

################
Résolution 2

Permutations:
1 -> 17
2 -> 11
3 -> 18
4 -> 19
5 -> 7
6 -> 16
7 -> 2
8 -> 5
9 -> 1
10 -> 20
11 -> 12
12 -> 15
13 -> 14
14 -> 8
15 -> 13
16 -> 6
17 -> 9
18 -> 3
19 -> 4
20 -> 10

Cycles:
(1 17 9)
(2 11 12 15 13 14 8 5 7)
(3 18)
(4 19)
(6 16)
(10 20)

Cycle à casser:
(3 18)

################
Résolution 3

Permutations:
1 -> 17
2 -> 18
3 -> 14
4 -> 19
5 -> 7
6 -> 16
7 -> 2
8 -> 5
9 -> 1
10 -> 20
11 -> 12
12 -> 11
13 -> 15
14 -> 8
15 -> 13
16 -> 6
17 -> 9
18 -> 3
19 -> 4
20 -> 10

Cycles:
(1 17 9)
(2 18 3 14 8 5 7)
(4 19)
(6 16)
(10 20)
(11 12)
(13 15)

Cycle à casser:
(4 19)

################
Résolution 4

Permutations:
1 -> 17
2 -> 7
3 -> 18
4 -> 19
5 -> 8
6 -> 16
7 -> 5
8 -> 14
9 -> 1
10 -> 20
11 -> 12
12 -> 11
13 -> 15
14 -> 4
15 -> 13
16 -> 6
17 -> 9
18 -> 2
19 -> 3
20 -> 10

Cycles:
(1 17 9)
(2 7 5 8 14 4 19 3 18)
(6 16)
(10 20)
(11 12)
(13 15)

Cycle à casser:
(6 16)

################
Résolution 5

Permutations:
1 -> 17
2 -> 7
3 -> 18
4 -> 19
5 -> 8
6 -> 16
7 -> 5
8 -> 14
9 -> 3
10 -> 20
11 -> 12
12 -> 11
13 -> 15
14 -> 4
15 -> 13
16 -> 1
17 -> 9
18 -> 2
19 -> 6
20 -> 10

Cycles:
(1 17 9 3 18 2 7 5 8 14 4 19 6 16)
(10 20)
(11 12)
(13 15)

Cycle à casser:
(10 20)

################
Résolution 6

Permutations:
1 -> 9
2 -> 18
3 -> 14
4 -> 13
5 -> 7
6 -> 16
7 -> 2
8 -> 5
9 -> 17
10 -> 19
11 -> 20
12 -> 11
13 -> 15
14 -> 8
15 -> 6
16 -> 1
17 -> 12
18 -> 3
19 -> 4
20 -> 10

Cycles:
(1 9 17 12 11 20 10 19 4 13 15 6 16)
(2 18 3 14 8 5 7)

Cycle à casser:
(2 18 3 14 8 5 7)

################
Résolution 7

Permutations:
1 -> 16
2 -> 18
3 -> 9
4 -> 13
5 -> 7
6 -> 14
7 -> 2
8 -> 5
9 -> 17
10 -> 19
11 -> 20
12 -> 11
13 -> 15
14 -> 8
15 -> 12
16 -> 6
17 -> 1
18 -> 3
19 -> 4
20 -> 10

Cycles:
(1 16 6 14 8 5 7 2 18 3 9 17)
(4 13 15 12 11 20 10 19)

Cycle à casser:
(4 13 15 12 11 20 10 19)

################
Résolution 8

Permutations:
1 -> 17
2 -> 7
3 -> 18
4 -> 13
5 -> 3
6 -> 16
7 -> 5
8 -> 14
9 -> 1
10 -> 19
11 -> 20
12 -> 11
13 -> 15
14 -> 8
15 -> 6
16 -> 12
17 -> 9
18 -> 2
19 -> 4
20 -> 10

Cycles:
(1 17 9)
(2 7 5 3 18)
(4 13 15 6 16 12 11 20 10 19)
(8 14)

Cycle à casser:
(8 14)

################
Résolution 9

Permutations:
1 -> 16
2 -> 18
3 -> 9
4 -> 19
5 -> 7
6 -> 14
7 -> 2
8 -> 5
9 -> 17
10 -> 20
11 -> 12
12 -> 15
13 -> 4
14 -> 8
15 -> 13
16 -> 6
17 -> 1
18 -> 3
19 -> 10
20 -> 11

Cycles:
(1 16 6 14 8 5 7 2 18 3 9 17)
(4 19 10 20 11 12 15 13)

Cycle à casser:
(4 19 10 20 11 12 15 13)

################
Résolution 10

Permutations:
1 -> 17
2 -> 7
3 -> 18
4 -> 13
5 -> 8
6 -> 16
7 -> 5
8 -> 14
9 -> 1
10 -> 19
11 -> 20
12 -> 11
13 -> 15
14 -> 3
15 -> 6
16 -> 12
17 -> 9
18 -> 2
19 -> 4
20 -> 10

Cycles:
(1 17 9)
(2 7 5 8 14 3 18)
(4 13 15 6 16 12 11 20 10 19)

Cycle à casser:
(1 17 9)

################
Résolution 11

Permutations:
1 -> 16
2 -> 7
3 -> 18
4 -> 19
5 -> 8
6 -> 15
7 -> 5
8 -> 14
9 -> 1
10 -> 20
11 -> 12
12 -> 17
13 -> 4
14 -> 3
15 -> 13
16 -> 6
17 -> 9
18 -> 2
19 -> 10
20 -> 11

Cycles:
(1 16 6 15 13 4 19 10 20 11 12 17 9)
(2 7 5 8 14 3 18)

Cycle à casser:
(2 7 5 8 14 3 18)

################
Résolution 12

Permutations:
1 -> 16
2 -> 11
3 -> 9
4 -> 13
5 -> 7
6 -> 14
7 -> 2
8 -> 5
9 -> 17
10 -> 19
11 -> 20
12 -> 18
13 -> 15
14 -> 8
15 -> 12
16 -> 6
17 -> 1
18 -> 3
19 -> 4
20 -> 10

Cycles:
(1 16 6 14 8 5 7 2 11 20 10 19 4 13 15 12 18 3 9 17)

z = 200

Résultat :
-----------
Temps (secondes) : 0.024
Nombre d'appels à GPLK : 12
Nombre d'appels à realloc (/3) : 2
Nombre de contraintes ajoutées : 51
Writing problem data to './plat/plat20.dat.lp'...
1016 lines were written
